number of args: 6
Total number of parts: 10
number of parts: 10
relaxed: 0
algorithm id: 0
asceding order: 0
1 n 26
0:0
1:0
2:1
3:1
4:1
5:1
6:0
7:1
8:0
9:1
10:1
11:1
12:0
13:1
14:1
15:1
16:1
17:1
18:1
19:1
20:1
21:1
22:1
23:1
24:1
25:1
26:0
number of vertices 6
descending order
Number of parts: 10
Set parameter WLSAccessID
Set parameter WLSSecret
Set parameter LicenseID to value 2419119
Academic license 2419119 - for non-commercial use only - registered to ev___@ufmg.br
Set parameter WLSAccessID
Set parameter WLSSecret
Set parameter LicenseID to value 2419119
Academic license 2419119 - for non-commercial use only - registered to ev___@ufmg.br
Set parameter FeasibilityTol to value 1e-07
Set parameter IntFeasTol to value 1e-07
Set parameter OptimalityTol to value 1e-07
Set parameter Presolve to value 1
Gurobi Optimizer version 11.0.0 build v11.0.0rc2 (linux64 - "Debian GNU/Linux 11 (bullseye)")

CPU model: 11th Gen Intel(R) Core(TM) i7-11370H @ 3.30GHz, instruction set [SSE2|AVX|AVX2|AVX512]
Thread count: 4 physical cores, 8 logical processors, using up to 8 threads

Academic license 2419119 - for non-commercial use only - registered to ev___@ufmg.br
Optimize a model with 8391 rows, 4800 columns and 23908 nonzeros
Model fingerprint: 0x4782ec72
Variable types: 0 continuous, 4800 integer (0 binary)
Coefficient statistics:
  Matrix range     [1e+00, 1e+00]
  Objective range  [0e+00, 0e+00]
  Bounds range     [1e+00, 1e+00]
  RHS range        [1e+00, 2e+00]
Presolve removed 7277 rows and 4734 columns
Presolve time: 0.17s

Explored 0 nodes (0 simplex iterations) in 0.17 seconds (0.12 work units)
Thread count was 1 (of 8 available processors)

Solution count 0

Model is infeasible
Best objective -, best bound -, gap -
== 0
Number of parts: 9
Set parameter WLSAccessID
Set parameter WLSSecret
Set parameter LicenseID to value 2419119
Academic license 2419119 - for non-commercial use only - registered to ev___@ufmg.br
Set parameter WLSAccessID
Set parameter WLSSecret
Set parameter LicenseID to value 2419119
Academic license 2419119 - for non-commercial use only - registered to ev___@ufmg.br
